p cnf 74 70
-1 -2 -4 -5 -19 -21 -22 -23 -24 -28 -29 -30 -36 -37 -38 -39 -40 -41 -45 -52 -54 -55 -56 -62 -63 -65 -66 -67 -68 -85 -88 0
-2 -4 -5 -6 -18 -37 -38 -46 -47 -55 -60 -63 0
-2 -6 -18 -37 -38 -46 -47 -55 -60 -63 -75 0
-2 -6 -18 -37 -38 -46 -47 -60 -63 -75 -83 -86 0
-3 -4 -5 -6 -18 -31 -32 -34 -35 -38 -42 -44 -46 -48 -49 -51 -53 -54 -57 -59 -60 -61 -69 -70 -71 -72 -73 -83 -84 -86 -87 0
-2 -4 -5 -6 -18 -37 -38 -46 -47 -60 -63 -83 -86 0
-1 -2 -4 -5 -37 -38 -40 -45 -46 -47 -52 -60 -63 -83 -86 0
-1 -2 -4 -5 -37 -38 -40 -45 -46 -47 -49 -51 -52 -60 -61 -71 -83 -86 0
-1 -2 -3 -4 -5 -31 -34 -37 -40 -41 -45 -46 -47 -48 -52 -60 -63 -64 -65 -66 -67 -83 -86 0
-2 -3 -4 -5 -6 -18 -31 -34 -37 -41 -46 -47 -48 -60 -63 -64 -65 -66 -67 -83 -86 0
-1 -2 -3 -4 -5 -31 -32 -34 -35 -40 -41 -42 -44 -45 -46 -47 -48 -49 -51 -52 -60 -61 -64 -65 -66 -67 -69 -70 -71 -72 -73 -83 -84 -86 -87 0
-1 -34 -35 -37 -38 -40 -41 -42 -43 -44 -45 -46 -52 -54 -55 -56 -57 -58 -59 -60 -61 -65 -66 -67 -70 -71 -72 -73 -77 -78 -79 -80 -83 -84 -86 -87 0
-6 -18 -34 -35 -37 -38 -41 -42 -43 -44 -46 -54 -55 -56 -57 -58 -59 -60 -61 -65 -66 -67 -70 -71 -72 -73 -77 -78 -79 -80 -83 -84 -86 -87 0
-6 -18 -31 -32 -34 -35 -38 -41 -42 -43 -44 -46 -53 -54 -55 -56 -57 -58 -59 -60 -61 -65 -66 -67 -69 -70 -71 -72 -73 -77 -78 -79 -80 -83 -84 -86 -87 0
-1 -2 -19 -22 -24 -30 -37 -38 -39 -40 -41 -45 -47 -52 -55 -56 -63 -68 -75 0
-2 -6 -7 -10 -12 -18 -30 -37 -38 -39 -41 -47 -55 -56 -63 -68 -75 0
-2 -4 -5 -6 -7 -10 -12 -18 -30 -37 -38 -39 -41 -47 -55 -56 -63 -68 0
-1 -2 -4 -5 -19 -22 -24 -30 -37 -38 -39 -40 -41 -45 -47 -52 -55 -56 -63 -68 0
-1 -2 -4 -5 -37 -38 -40 -45 -46 -47 -52 -55 -60 -63 0
-1 -2 -37 -38 -40 -45 -46 -47 -52 -55 -60 -63 -75 0
-4 -5 -6 -18 -34 -35 -37 -38 -42 -44 -46 -49 -51 -54 -55 -57 -59 -60 -61 -70 -71 -72 -73 -83 -84 -86 -87 0
-1 -4 -5 -34 -35 -37 -38 -40 -42 -44 -45 -46 -49 -51 -52 -54 -55 -57 -59 -60 -61 -70 -71 -72 -73 -83 -84 -86 -87 0
-1 -4 -5 -34 -35 -37 -38 -40 -41 -42 -44 -45 -46 -52 -54 -55 -56 -57 -59 -60 -61 -65 -66 -67 -70 -71 -72 -73 -83 -84 -86 -87 0
-4 -5 -6 -18 -34 -35 -37 -38 -41 -42 -44 -46 -54 -55 -56 -57 -59 -60 -61 -65 -66 -67 -70 -71 -72 -73 -83 -84 -86 -87 0
-2 -4 -5 -6 -18 -37 -38 -46 -47 -49 -51 -60 -61 -71 -83 -86 0
-1 -3 -4 -5 -31 -32 -34 -35 -38 -40 -42 -44 -45 -46 -48 -49 -51 -52 -53 -54 -57 -59 -60 -61 -69 -70 -71 -72 -73 -83 -84 -86 -87 0
-1 -2 -37 -38 -40 -45 -46 -47 -52 -60 -63 -75 -83 -86 0
-1 -2 -4 -5 -7 -10 -12 -18 -19 -22 -24 -30 -37 -38 -39 -40 -41 -47 -52 -55 -56 -63 -68 0
-1 -2 -4 -5 -9 -10 -11 -12 -16 -17 -18 -19 -21 -22 -23 -24 -28 -29 -30 -36 -37 -38 -39 -40 -41 -52 -54 -55 -56 -62 -63 -65 -66 -67 -68 -85 -88 0
-1 -2 -4 -5 -7 -9 -10 -11 -12 -16 -17 -18 -19 -22 -24 -30 -36 -37 -38 -39 -40 -41 -52 -54 -55 -56 -62 -63 -65 -66 -67 -68 -85 -88 0
-2 -4 -5 -6 -7 -9 -10 -11 -12 -16 -17 -18 -30 -36 -37 -38 -39 -41 -54 -55 -56 -62 -63 -65 -66 -67 -68 -85 -88 0
-4 -5 -6 -9 -10 -11 -12 -16 -17 -18 -34 -35 -36 -37 -38 -39 -41 -42 -44 -54 -55 -56 -57 -59 -60 -61 -62 -65 -66 -67 -68 -70 -71 -72 -73 -83 -84 -85 -86 -87 -88 0
-1 -4 -5 -21 -22 -23 -24 -28 -29 -34 -35 -36 -37 -38 -39 -40 -41 -42 -44 -45 -52 -54 -55 -56 -57 -59 -60 -61 -62 -65 -66 -67 -68 -70 -71 -72 -73 -83 -84 -85 -86 -87 -88 0
-1 -2 -7 -10 -12 -18 -19 -22 -24 -30 -37 -38 -39 -40 -41 -47 -52 -55 -56 -63 -68 -75 0
-2 -6 -7 -9 -10 -11 -12 -16 -17 -18 -30 -36 -37 -38 -39 -41 -54 -55 -56 -62 -63 -65 -66 -67 -68 -75 -85 -88 0
-1 -2 -19 -21 -22 -23 -24 -28 -29 -30 -36 -37 -38 -39 -40 -41 -45 -52 -54 -55 -56 -62 -63 -65 -66 -67 -68 -75 -85 -88 0
-1 -2 -7 -9 -10 -11 -12 -16 -17 -18 -19 -22 -24 -30 -36 -37 -38 -39 -40 -41 -52 -54 -55 -56 -62 -63 -65 -66 -67 -68 -75 -85 -88 0
-2 -4 -5 -6 -18 -37 -38 -41 -46 -47 -55 -56 -63 0
-2 -6 -18 -37 -38 -41 -46 -47 -55 -56 -63 -75 0
-1 -2 -4 -5 -37 -38 -40 -41 -45 -46 -47 -52 -55 -56 -63 0
-1 -2 -37 -38 -40 -41 -45 -46 -47 -52 -55 -56 -63 -75 0
-1 -2 -9 -10 -11 -12 -16 -17 -18 -19 -21 -22 -23 -24 -28 -29 -30 -36 -37 -38 -39 -40 -41 -52 -54 -55 -56 -62 -63 -65 -66 -67 -68 -75 -85 -88 0
-1 -2 -21 -22 -23 -24 -28 -29 -34 -36 -37 -38 -39 -40 -41 -45 -52 -54 -55 -56 -60 -62 -63 -65 -66 -67 -68 -75 -83 -85 -86 -88 0
-1 -21 -22 -23 -24 -28 -29 -34 -35 -36 -37 -38 -39 -40 -41 -42 -43 -44 -45 -52 -54 -55 -56 -57 -58 -59 -60 -61 -62 -65 -66 -67 -68 -70 -71 -72 -73 -77 -78 -79 -80 -83 -84 -85 -86 -87 -88 0
-1 -2 -4 -5 -37 -38 -40 -45 -46 -47 -49 -51 -52 -55 -60 -61 -71 0
-2 -4 -5 -6 -18 -37 -38 -46 -47 -49 -51 -55 -60 -61 -71 0
-1 -4 -5 -9 -10 -11 -12 -16 -17 -18 -21 -22 -23 -24 -28 -29 -34 -35 -36 -37 -38 -39 -40 -41 -42 -44 -52 -54 -55 -56 -57 -59 -60 -61 -62 -65 -66 -67 -68 -70 -71 -72 -73 -83 -84 -85 -86 -87 -88 0
-2 -4 -5 -6 -9 -10 -11 -12 -16 -17 -18 -34 -36 -37 -38 -39 -41 -54 -55 -56 -60 -62 -63 -65 -66 -67 -68 -83 -85 -86 -88 0
-6 -9 -10 -11 -12 -16 -17 -18 -34 -36 -37 -38 -39 -41 -43 -54 -55 -56 -58 -60 -62 -63 -65 -66 -67 -68 -75 -77 -78 -79 -80 -83 -85 -86 -88 0
-6 -9 -10 -11 -12 -16 -17 -18 -34 -35 -36 -37 -38 -39 -41 -42 -43 -44 -54 -55 -56 -57 -58 -59 -60 -61 -62 -65 -66 -67 -68 -70 -71 -72 -73 -77 -78 -79 -80 -83 -84 -85 -86 -87 -88 0
-1 -9 -10 -11 -12 -16 -17 -18 -21 -22 -23 -24 -28 -29 -34 -35 -36 -37 -38 -39 -40 -41 -42 -43 -44 -52 -54 -55 -56 -57 -58 -59 -60 -61 -62 -65 -66 -67 -68 -70 -71 -72 -73 -77 -78 -79 -80 -83 -84 -85 -86 -87 -88 0
-1 -9 -10 -11 -12 -16 -17 -18 -21 -22 -23 -24 -28 -29 -34 -36 -37 -38 -39 -40 -41 -43 -52 -54 -55 -56 -58 -60 -62 -63 -65 -66 -67 -68 -75 -77 -78 -79 -80 -83 -85 -86 -88 0
-1 -21 -22 -23 -24 -28 -29 -34 -36 -37 -38 -39 -40 -41 -43 -45 -52 -54 -55 -56 -58 -60 -62 -63 -65 -66 -67 -68 -75 -77 -78 -79 -80 -83 -85 -86 -88 0
-1 -2 -4 -5 -21 -22 -23 -24 -28 -29 -34 -36 -37 -38 -39 -40 -41 -45 -52 -54 -55 -56 -60 -62 -63 -65 -66 -67 -68 -83 -85 -86 -88 0
-1 -34 -37 -38 -40 -41 -43 -45 -46 -52 -54 -55 -56 -58 -60 -63 -65 -66 -67 -75 -77 -78 -79 -80 -83 -86 0
-1 -2 -34 -37 -38 -40 -41 -45 -46 -52 -54 -55 -56 -60 -63 -65 -66 -67 -75 -83 -86 0
-2 -6 -9 -10 -11 -12 -16 -17 -18 -34 -36 -37 -38 -39 -41 -54 -55 -56 -60 -62 -63 -65 -66 -67 -68 -75 -83 -85 -86 -88 0
-2 -6 -18 -34 -37 -38 -41 -46 -54 -55 -56 -60 -63 -65 -66 -67 -75 -83 -86 0
-2 -4 -5 -6 -18 -34 -37 -38 -41 -46 -54 -55 -56 -60 -63 -65 -66 -67 -83 -86 0
-6 -18 -34 -37 -38 -41 -43 -46 -54 -55 -56 -58 -60 -63 -65 -66 -67 -75 -77 -78 -79 -80 -83 -86 0
-2 -3 -4 -5 -6 -18 -31 -34 -37 -41 -46 -47 -48 -53 -54 -56 -63 -64 -65 -66 -67 -83 -86 0
-2 -3 -4 -5 -6 -18 -37 -41 -46 -47 -48 -53 -54 -55 -56 -63 -64 -65 -66 -67 0
-1 -2 -3 -4 -5 -7 -10 -12 -18 -19 -22 -24 -30 -37 -39 -40 -41 -47 -48 -52 -53 -54 -55 -56 -63 -64 -65 -66 -67 -68 0
-1 -2 -3 -4 -5 -19 -22 -24 -30 -37 -39 -40 -41 -45 -47 -48 -52 -53 -54 -55 -56 -63 -64 -65 -66 -67 -68 0
-1 -2 -3 -4 -5 -37 -40 -41 -45 -46 -47 -48 -52 -53 -54 -55 -56 -63 -64 -65 -66 -67 0
-1 -2 -3 -4 -5 -31 -34 -37 -40 -41 -45 -46 -47 -48 -52 -53 -54 -56 -63 -64 -65 -66 -67 -83 -86 0
-2 -3 -4 -5 -6 -7 -10 -12 -18 -30 -37 -39 -41 -47 -48 -53 -54 -55 -56 -63 -64 -65 -66 -67 -68 0
-1 -2 -4 -5 -9 -10 -11 -12 -16 -17 -18 -21 -22 -23 -24 -28 -29 -34 -36 -37 -38 -39 -40 -41 -52 -54 -55 -56 -60 -62 -63 -65 -66 -67 -68 -83 -85 -86 -88 0
-1 -2 -4 -5 -34 -37 -38 -40 -41 -45 -46 -52 -54 -55 -56 -60 -63 -65 -66 -67 -83 -86 0
-1 -2 -9 -10 -11 -12 -16 -17 -18 -21 -22 -23 -24 -28 -29 -34 -36 -37 -38 -39 -40 -41 -52 -54 -55 -56 -60 -62 -63 -65 -66 -67 -68 -75 -83 -85 -86 -88 0
